NAME: instance_3105
TYPE: TSP
DIMENSION: 20
EDGE_WEIGHT_TYPE: EUC_2D
NODE_COORD_SECTION
0 46.51 76.92
1 96.61 54.05
2 9.65 57.85
3 92.94 34.94
4 64.26 87.17
5 96.74 97.94
6 81.22 18.65
7 79.11 95.50
8 15.65 5.55
9 70.76 30.66
10 62.42 10.18
11 63.19 38.57
12 18.56 95.73
13 26.12 87.52
14 35.06 51.35
15 74.12 66.19
16 54.21 91.82
17 92.26 89.56
18 51.88 86.16
19 91.27 57.67
EOF
